NAME: Random_85_5
ELLAPSED_TIME_(ms): 1
TOUR_SIZE: 2728.5059
TOUR_SECTION
0
27
72
38
53
45
41
1
29
81
68
33
80
2
58
63
6
18
71
46
40
21
55
16
49
10
52
5
60
22
25
32
42
31
14
24
3
20
84
82
17
77
44
13
69
54
66
67
34
39
47
74
19
9
15
48
12
23
11
65
76
56
7
51
61
28
83
70
62
43
8
75
36
59
57
73
4
64
50
26
79
35
37
30
78
0
EOF
